%mem=6000MB
%nprocshared=12
%chk=E:\PAA\TDDFT\GausANA\TPAAoptfreq.chk
#p TD(nstates=40,50-50) wb97xd/Def2TZVP scrf=(smd,solvent=water)  IOp(9/40=4)

Generated by Multiwfn

  0  1
  C       1.790001     -0.421376      0.003871
  C       0.419121      0.172478     -0.012431
  O      -0.525942     -0.775884     -0.012733
  O       0.139431      1.335298     -0.006044
  O      -1.823884     -0.244783      0.015772
  H       1.775648     -1.453760     -0.315482
  H       2.164648     -0.364868      1.020698
  H       2.431579      0.168076     -0.637231
  H      -1.670481      0.706531      0.011938
